data;

param MaxPartitionTraffic := 15;
param N := 4;

param Traffic :=
1   1   0
1   2   1
1   3   3
1   4   3
2   1   1
2   2   0
2   3   2
2   4   0
3   1   3
3   2   2
3   3   0
3   4   10
4   1   3
4   2   0
4   3   10
4   4   0
;

end;
